NAME: random67
TYPE: TSP
DIMENSION: 67
EDGE_WEIGHT_TYPE: EXPLICIT
EDGE_WEIGHT_FORMAT: FULL_MATRIX
EDGE_WEIGHT_SECTION
0 123 123 34 123 38 123 123 123 123 123 36 123 15 48 123 123 10 123 123 123 123 123 42 123 20 123 11 123 45 123 10 17 123 123 26 123 123 123 123 20 123 50 123 123 123 123 123 123 40 123 123 123 123 123 123 33 123 123 25 123 123 123 123 24 123 19
123 0 123 123 123 29 43 123 123 29 123 35 123 40 38 28 13 123 123 123 29 6 123 123 123 123 32 123 10 10 123 123 123 18 123 123 123 123 123 17 123 21 47 33 123 123 10 11 123 123 16 13 5 123 32 123 123 30 21 123 123 123 123 17 44 123 123
123 123 0 123 123 123 20 13 42 35 123 123 19 123 123 123 123 123 36 123 123 123 21 123 51 123 123 123 123 123 29 123 123 123 31 123 15 23 18 123 123 123 19 123 39 40 123 123 123 123 123 123 123 28 123 52 123 123 123 44 20 123 123 123 123 123 123
34 123 123 0 123 123 123 123 123 123 17 44 123 123 123 123 123 33 21 123 123 123 123 9 21 14 123 24 123 123 123 26 43 123 30 18 123 80 123 123 20 123 47 123 123 123 123 123 19 123 123 123 123 29 123 19 123 123 123 34 37 123 123 123 123 123 123
123 123 123 123 0 123 123 123 47 123 123 123 123 123 123 44 27 123 123 1 123 23 54 123 123 123 123 123 21 123 51 123 123 28 123 123 123 123 123 15 123 12 123 123 40 51 19 123 123 123 13 123 123 123 20 123 123 27 23 123 123 1 27 13 123 9 123
38 29 123 123 123 0 123 123 123 45 123 43 123 29 13 123 29 123 123 123 27 123 123 123 123 123 44 123 39 22 123 43 44 46 123 123 123 123 123 123 123 123 60 14 123 123 123 26 123 31 123 21 32 123 49 123 17 123 123 42 123 123 123 123 18 123 29
123 43 20 123 123 123 0 7 30 19 123 26 2 123 123 16 123 123 42 123 123 123 1 123 123 123 21 123 123 44 17 123 123 28 123 123 16 29 11 123 123 123 15 123 23 123 123 123 123 123 123 123 123 123 123 123 123 28 32 37 32 123 29 123 123 123 123
123 123 13 123 123 123 7 0 123 23 123 28 6 123 123 21 123 123 38 123 123 123 8 123 57 123 24 123 123 49 20 123 123 36 38 123 11 26 11 123 123 123 13 123 29 33 123 123 123 123 123 123 123 33 123 123 123 123 123 38 26 123 123 123 123 123 123
123 123 42 123 47 123 30 123 0 123 123 123 30 123 123 37 123 123 123 48 123 123 29 123 123 123 123 123 123 123 14 123 123 36 123 123 123 28 24 40 123 55 123 123 11 5 47 123 123 123 47 123 123 123 67 123 123 24 33 123 123 47 23 44 123 55 123
123 29 35 123 123 45 19 23 123 0 123 12 20 33 123 6 123 123 39 123 123 33 19 123 123 123 6 123 29 27 32 123 123 20 123 123 23 123 30 33 123 123 18 123 33 123 123 39 123 123 123 40 123 123 123 123 123 29 27 24 37 123 30 123 123 123 123
123 123 123 17 123 123 123 123 123 123 0 123 123 123 123 123 123 50 27 123 123 123 123 10 7 31 123 123 123 123 123 123 123 123 26 31 123 123 123 123 123 123 123 123 123 123 123 123 2 123 123 123 123 123 123 5 123 123 123 123 123 123 123 123 123 123 123
36 35 123 44 123 43 26 28 123 12 123 0 123 24 123 17 123 123 29 123 123 123 123 123 123 123 6 38 123 30 123 30 123 31 123 26 22 123 123 123 27 123 17 55 123 123 123 123 123 123 123 43 123 33 123 123 51 123 123 12 32 123 123 123 43 123 48
123 123 19 123 123 123 2 6 30 20 123 123 0 123 123 18 123 123 123 123 123 123 2 123 123 123 23 123 123 123 16 123 123 30 43 123 16 27 10 123 123 123 16 123 23 29 123 123 123 123 123 123 123 123 123 123 123 29 123 123 32 123 123 123 123 123 123
15 40 123 123 123 29 123 123 123 33 123 24 123 0 42 123 123 25 37 123 54 123 123 49 123 29 28 23 123 31 123 15 30 46 123 26 123 123 123 123 21 123 40 44 123 123 123 45 123 43 123 41 123 123 123 123 31 123 123 15 48 123 123 123 22 123 24
48 38 123 123 123 13 123 123 123 123 123 123 123 42 0 123 33 123 123 123 23 123 123 123 123 123 123 123 123 33 123 123 51 123 123 123 123 123 123 123 123 123 123 8 123 123 123 31 123 27 123 26 123 123 49 123 18 123 123 123 123 123 123 123 25 123 35
123 28 123 123 44 123 16 21 37 6 123 17 18 123 123 0 123 123 123 123 123 123 16 123 123 123 11 123 27 28 27 123 123 17 123 123 24 44 26 29 123 123 20 123 27 38 123 123 123 123 123 40 123 123 123 123 123 23 22 123 123 123 25 123 123 123 123
123 13 123 123 27 29 123 123 123 123 123 123 123 123 33 123 0 123 123 26 17 11 123 123 123 123 123 123 18 19 123 123 123 29 123 123 123 123 123 123 123 15 123 27 123 123 16 4 123 59 17 9 10 123 21 123 123 123 123 123 123 26 123 20 123 28 123
10 123 123 33 123 123 123 123 123 123 50 123 123 25 123 123 123 0 43 123 123 123 123 41 123 19 123 11 123 123 123 17 10 123 123 31 123 123 123 123 25 123 123 123 123 123 123 123 123 41 123 123 123 123 123 52 37 123 123 34 123 123 123 123 30 123 21
123 123 36 21 123 123 42 38 123 39 27 29 123 37 123 123 123 43 0 123 123 123 123 25 24 26 34 32 123 58 123 29 123 123 16 12 26 60 49 123 19 123 27 123 123 123 123 123 28 123 123 123 123 11 123 24 123 123 123 24 17 123 123 123 123 123 123
123 123 123 123 1 123 123 123 48 123 123 123 123 123 123 123 26 123 123 0 40 23 123 123 123 123 123 123 123 123 123 123 123 123 123 123 123 123 123 16 123 12 123 123 41 123 20 123 123 123 13 123 123 123 19 123 123 123 123 123 123 1 28 13 123 8 123
123 29 123 123 123 27 123 123 123 123 123 123 123 54 23 123 17 123 123 40 0 28 123 123 123 123 123 123 123 30 123 123 71 123 123 123 123 123 123 123 123 28 123 16 123 123 123 18 123 51 33 17 27 123 26 123 40 123 123 123 123 123 123 123 44 39 55
123 6 123 123 23 123 123 123 123 33 123 123 123 123 123 123 11 123 123 23 28 0 123 123 123 123 123 123 7 16 123 123 123 18 123 123 123 123 123 13 123 15 123 123 123 123 6 10 123 123 10 15 2 123 26 123 123 28 19 123 123 23 123 12 123 28 123
123 123 21 123 54 123 1 8 29 19 123 123 2 123 123 16 123 123 123 123 123 123 0 123 123 123 22 123 123 44 16 123 123 28 44 123 17 28 10 40 123 123 16 123 22 29 123 123 123 123 123 123 123 123 123 123 123 28 32 123 123 123 28 123 123 123 123
42 123 123 9 123 123 123 123 123 123 10 123 123 49 123 123 123 41 25 123 123 123 123 0 15 22 123 32 123 123 123 35 50 123 31 26 123 123 123 123 28 123 123 123 123 123 123 123 11 82 123 123 123 123 123 13 123 123 123 42 123 123 123 123 123 123 60
123 123 51 21 123 123 123 57 123 123 7 123 123 123 123 123 123 123 24 123 123 123 123 15 0 35 123 123 123 123 77 123 123 123 20 31 47 74 68 123 123 123 49 123 123 123 123 123 7 123 123 123 123 24 123 2 123 123 123 47 32 123 123 123 123 123 123
20 123 123 14 123 123 123 123 123 123 31 123 123 29 123 123 123 19 26 123 123 123 123 22 35 0 123 10 123 123 123 14 29 123 123 17 123 123 123 123 13 123 48 123 123 123 123 123 33 123 123 123 123 123 123 33 123 123 123 28 123 123 123 123 123 123 38
123 32 123 123 123 44 21 24 123 6 123 6 23 28 123 11 123 123 34 123 123 123 22 123 123 123 0 123 33 28 123 36 123 26 123 32 21 123 123 123 123 123 16 123 123 123 123 123 123 123 123 41 123 123 123 123 123 35 123 18 34 123 123 123 47 123 123
11 123 123 24 123 123 123 123 123 123 123 38 123 23 123 123 123 11 32 123 123 123 123 32 123 10 123 0 123 123 123 9 21 123 123 20 123 123 123 123 14 123 123 123 123 123 123 123 123 50 123 123 123 123 123 42 123 123 123 26 123 123 123 123 35 123 29
123 10 123 123 21 39 123 123 123 29 123 123 123 123 123 27 18 123 123 123 123 7 123 123 123 123 33 123 0 19 123 123 123 12 123 123 123 123 123 7 123 18 123 123 35 123 3 18 123 123 9 22 9 123 123 123 123 21 12 123 123 21 22 8 123 123 123
45 10 123 123 123 22 44 49 123 27 123 30 123 31 33 28 19 123 58 123 30 16 44 123 123 123 28 123 19 0 123 45 123 24 123 123 123 123 123 27 49 123 44 29 48 123 20 15 123 123 123 14 14 123 123 123 38 37 28 35 123 123 123 123 34 123 45
123 123 29 123 51 123 17 20 14 32 123 123 16 123 123 27 123 123 123 123 123 123 16 123 77 123 123 123 123 123 0 123 123 32 57 123 31 21 10 40 123 123 123 123 11 13 123 123 123 123 123 123 123 123 123 123 123 24 123 123 46 123 24 123 123 60 123
10 123 123 26 123 43 123 123 123 123 123 30 123 15 123 123 123 17 29 123 123 123 123 35 123 14 36 9 123 45 123 0 25 123 123 17 123 123 123 123 10 123 42 123 123 123 123 123 123 50 123 123 123 123 123 123 41 123 123 17 123 123 123 123 32 123 28
17 123 123 43 123 44 123 123 123 123 123 123 123 30 51 123 123 10 123 123 71 123 123 50 123 29 123 21 123 123 123 25 0 123 123 41 123 123 123 123 34 123 123 123 123 123 123 123 123 33 123 123 123 123 123 62 32 123 123 41 123 123 123 123 27 123 16
123 18 123 123 28 46 28 36 36 20 123 31 30 46 123 17 29 123 123 123 123 18 28 123 123 123 26 123 12 24 32 123 123 0 123 123 123 123 123 13 123 123 36 51 25 123 14 28 123 123 19 31 19 123 123 123 123 13 7 123 123 123 15 16 123 123 123
123 123 31 30 123 123 123 38 123 123 26 123 43 123 123 123 123 123 16 123 123 123 44 31 20 123 123 123 123 123 57 123 123 123 0 28 28 53 47 123 123 123 31 123 123 69 123 123 27 123 123 123 123 7 123 22 123 123 123 38 12 123 123 123 123 123 123
26 123 123 18 123 123 123 123 123 123 31 26 123 26 123 123 123 31 12 123 123 123 123 26 31 17 32 20 123 123 123 17 41 123 28 0 32 123 123 123 7 123 31 123 123 123 123 123 33 123 123 123 123 23 123 30 123 123 123 16 28 123 123 123 123 123 123
123 123 15 123 123 123 16 11 123 23 123 22 16 123 123 24 123 123 26 123 123 123 17 123 47 123 21 123 123 123 31 123 123 123 28 32 0 35 23 123 123 123 5 123 123 123 123 123 123 123 123 123 123 22 123 123 123 123 123 29 16 123 123 123 123 123 123
123 123 23 80 123 123 29 26 28 123 123 123 27 123 123 44 123 123 60 123 123 123 28 123 74 123 123 123 123 123 21 123 123 123 53 123 35 0 18 123 123 123 38 123 32 24 123 123 81 123 123 123 123 52 123 75 123 123 123 123 44 123 45 123 123 123 123
123 123 18 123 123 123 11 11 24 30 123 123 10 123 123 26 123 123 49 123 123 123 10 123 68 123 123 123 123 123 10 123 123 123 47 123 23 18 0 123 123 123 24 123 21 22 123 123 123 123 123 123 123 44 123 123 123 32 123 123 36 123 31 123 123 123 123
123 17 123 123 15 123 123 123 40 33 123 123 123 123 123 29 123 123 123 16 123 13 40 123 123 123 123 123 7 27 40 123 123 13 123 123 123 123 123 0 123 17 123 123 31 123 8 123 123 123 7 123 15 123 123 123 123 17 9 123 123 15 18 4 123 24 123
20 123 123 20 123 123 123 123 123 123 123 27 123 21 123 123 123 25 19 123 123 123 123 28 123 13 123 14 123 49 123 10 34 123 123 7 123 123 123 123 0 123 36 123 123 123 123 123 123 123 123 123 123 123 123 35 123 123 123 16 35 123 123 123 123 123 38
123 21 123 123 12 123 123 123 55 123 123 123 123 123 123 123 15 123 123 12 28 15 123 123 123 123 123 123 18 123 123 123 123 123 123 123 123 123 123 17 123 0 123 41 123 123 15 18 123 123 10 24 16 123 13 123 123 123 123 123 123 12 34 13 123 14 123
50 47 19 47 123 60 15 13 123 18 123 17 16 40 123 20 123 123 27 123 123 123 16 123 49 48 16 123 123 44 123 42 123 36 31 31 5 38 24 123 36 123 0 123 38 123 123 123 123 123 123 123 123 25 123 49 123 41 123 25 20 123 123 123 123 123 123
123 33 123 123 123 14 123 123 123 123 123 55 123 44 8 123 27 123 123 123 16 123 123 123 123 123 123 123 123 29 123 123 123 51 123 123 123 123 123 123 123 41 123 0 123 123 123 25 123 35 123 20 34 123 41 123 25 123 123 123 123 123 123 123 30 123 41
123 123 39 123 40 123 23 29 11 33 123 123 23 123 123 27 123 123 123 41 123 123 22 123 123 123 123 123 35 48 11 123 123 25 123 123 123 32 21 31 123 123 38 123 0 14 123 123 123 123 123 123 123 123 123 123 123 15 23 123 123 123 13 35 123 49 123
123 123 40 123 51 123 123 33 5 123 123 123 29 123 123 38 123 123 123 123 123 123 29 123 123 123 123 123 123 123 13 123 123 123 69 123 123 24 22 123 123 123 123 123 14 0 123 123 123 123 123 123 123 123 123 123 123 28 123 123 123 123 26 123 123 123 123
123 10 123 123 19 123 123 123 47 123 123 123 123 123 123 123 16 123 123 20 123 6 123 123 123 123 123 123 3 20 123 123 123 14 123 123 123 123 123 8 123 15 123 123 123 123 0 16 123 123 7 123 7 123 27 123 123 23 14 123 123 19 24 7 123 123 123
123 11 123 123 123 26 123 123 123 39 123 123 123 45 31 123 4 123 123 123 18 10 123 123 123 123 123 123 18 15 123 123 123 28 123 123 123 123 123 123 123 18 123 25 123 123 16 0 123 123 18 6 9 123 25 123 123 123 123 123 123 123 123 123 123 123 123
123 123 123 19 123 123 123 123 123 123 2 123 123 123 123 123 123 123 28 123 123 123 123 11 7 33 123 123 123 123 123 123 123 123 27 33 123 81 123 123 123 123 123 123 123 123 123 123 0 123 123 123 123 31 123 6 123 123 123 123 123 123 123 123 123 123 123
40 123 123 123 123 31 123 123 123 123 123 123 123 43 27 123 59 41 123 123 51 123 123 82 123 123 123 50 123 123 123 50 33 123 123 123 123 123 123 123 123 123 123 35 123 123 123 123 123 0 123 51 123 123 123 123 15 123 123 123 123 123 123 123 22 123 22
123 16 123 123 13 123 123 123 47 123 123 123 123 123 123 123 17 123 123 13 33 10 123 123 123 123 123 123 9 123 123 123 123 19 123 123 123 123 123 7 123 10 123 123 123 123 7 18 123 123 0 123 12 123 22 123 123 24 16 123 123 13 25 4 123 19 123
123 13 123 123 123 21 123 123 123 40 123 43 123 41 26 40 9 123 123 123 17 15 123 123 123 123 41 123 22 14 123 123 123 31 123 123 123 123 123 123 123 24 123 20 123 123 123 6 123 51 123 0 13 123 29 123 38 123 33 48 123 123 123 123 38 37 49
123 5 123 123 123 32 123 123 123 123 123 123 123 123 123 123 10 123 123 123 27 2 123 123 123 123 123 123 9 14 123 123 123 19 123 123 123 123 123 15 123 16 123 34 123 123 7 9 123 123 12 13 0 123 27 123 123 123 20 123 123 24 123 123 123 29 123
123 123 28 29 123 123 123 33 123 123 123 33 123 123 123 123 123 123 11 123 123 123 123 123 24 123 123 123 123 123 123 123 123 123 7 23 22 52 44 123 123 123 25 123 123 123 123 123 31 123 123 123 123 0 123 25 123 123 123 31 8 123 123 123 123 123 123
123 32 123 123 20 49 123 123 67 123 123 123 123 123 49 123 21 123 123 19 26 26 123 123 123 123 123 123 123 123 123 123 123 123 123 123 123 123 123 123 123 13 123 41 123 123 27 25 123 123 22 29 27 123 0 123 123 123 123 123 123 20 123 123 123 15 123
123 123 52 19 123 123 123 123 123 123 5 123 123 123 123 123 123 52 24 123 123 123 123 13 2 33 123 42 123 123 123 123 62 123 22 30 123 75 123 123 35 123 49 123 123 123 123 123 6 123 123 123 123 25 123 0 123 123 123 46 32 123 123 123 123 123 123
33 123 123 123 123 17 123 123 123 123 123 51 123 31 18 123 123 37 123 123 40 123 123 123 123 123 123 123 123 38 123 41 32 123 123 123 123 123 123 123 123 123 123 25 123 123 123 123 123 15 123 38 123 123 123 123 0 123 123 123 123 123 123 123 9 123 17
123 30 123 123 27 123 28 123 24 29 123 123 29 123 123 23 123 123 123 123 123 28 28 123 123 123 35 123 21 37 24 123 123 13 123 123 123 123 32 17 123 123 41 123 15 28 23 123 123 123 24 123 123 123 123 123 123 0 9 123 123 123 2 20 123 36 123
123 21 123 123 23 123 32 123 33 27 123 123 123 123 123 22 123 123 123 123 123 19 32 123 123 123 123 123 12 28 123 123 123 7 123 123 123 123 123 9 123 123 123 123 23 123 14 123 123 123 16 33 20 123 123 123 123 9 0 123 123 123 11 13 123 123 123
25 123 44 34 123 42 37 38 123 24 123 12 123 15 123 123 123 34 24 123 123 123 123 42 47 28 18 26 123 35 123 17 41 123 38 16 29 123 123 123 16 123 25 123 123 123 123 123 123 123 123 48 123 31 123 46 123 123 123 0 33 123 123 123 37 123 39
123 123 20 37 123 123 32 26 123 37 123 32 32 48 123 123 123 123 17 123 123 123 123 123 32 123 34 123 123 123 46 123 123 123 12 28 16 44 36 123 35 123 20 123 123 123 123 123 123 123 123 123 123 8 123 32 123 123 123 33 0 123 123 123 123 123 123
123 123 123 123 1 123 123 123 47 123 123 123 123 123 123 123 26 123 123 1 123 23 123 123 123 123 123 123 21 123 123 123 123 123 123 123 123 123 123 15 123 12 123 123 123 123 19 123 123 123 13 123 24 123 20 123 123 123 123 123 123 0 28 13 123 9 123
123 123 123 123 27 123 29 123 23 30 123 123 123 123 123 25 123 123 123 28 123 123 28 123 123 123 123 123 22 123 24 123 123 15 123 123 123 45 31 18 123 34 123 123 13 26 24 123 123 123 25 123 123 123 123 123 123 2 11 123 123 28 0 21 123 37 123
123 17 123 123 13 123 123 123 44 123 123 123 123 123 123 123 20 123 123 13 123 12 123 123 123 123 123 123 8 123 123 123 123 16 123 123 123 123 123 4 123 13 123 123 35 123 7 123 123 123 4 123 123 123 123 123 123 20 13 123 123 13 21 0 123 21 123
24 44 123 123 123 18 123 123 123 123 123 43 123 22 25 123 123 30 123 123 44 123 123 123 123 123 47 35 123 34 123 32 27 123 123 123 123 123 123 123 123 123 123 30 123 123 123 123 123 22 123 38 123 123 123 123 9 123 123 37 123 123 123 123 0 123 11
123 123 123 123 9 123 123 123 55 123 123 123 123 123 123 123 28 123 123 8 39 28 123 123 123 123 123 123 123 123 60 123 123 123 123 123 123 123 123 24 123 14 123 123 49 123 123 123 123 123 19 37 29 123 15 123 123 36 123 123 123 9 37 21 123 0 123
19 123 123 123 123 29 123 123 123 123 123 48 123 24 35 123 123 21 123 123 55 123 123 60 123 38 123 29 123 45 123 28 16 123 123 123 123 123 123 123 38 123 123 41 123 123 123 123 123 22 123 49 123 123 123 123 17 123 123 39 123 123 123 123 11 123 0
EOF
